$molecule
0 1
 C                 -0.60308027    1.24884959    0.02595850
 C                  0.78318760    1.23153607   -0.00621390
 C                  1.43790248    0.00979129   -0.02475940
 C                 -1.30034920    0.04558663    0.03879402
 H                 -1.13531042    2.19180962    0.04090714
 H                  1.35342608    2.15108582   -0.01688747
 N                  2.91159486   -0.00948016   -0.05899691
 O                  3.45893135   -1.09359226   -0.07501963
 O                  3.48723719    1.05994155   -0.06906801
 C                 -0.63489100   -1.17551740    0.01999630
 H                 -1.19175769   -2.10420457    0.03034090
 C                  0.75132891   -1.19445736   -0.01220662
 H                  1.29720829   -2.12860384   -0.02748658
 Br                -3.19270661    0.07025578    0.08272467
$end

$rem
   !SCF_GUESS         read
   !SKIP_CIS_RPA      TRUE
   METHOD             wB97XD
   RPA                TRUE
   BASIS              6-311+G*
   CIS_N_ROOTS        100
   CIS_SINGLETS       TRUE
   CIS_TRIPLETS       FALSE
   MAKE_CUBE_FILES    TRUE
   PLOTS              TRUE
   STS_MOM            TRUE
   SYM_IGNORE         TRUE
   SYMMETRY           FALSE
   NTO_PAIRS          1
$end

$plots
   grid_points                    75 75 75
   total_density                  0-100
   transition_density             1-100
   natural_transition_orbital     1-100
$end
































