%chk=geometry.chk
%mem=98GB
%nprocshared=24

#p CAM-B3LYP/STO-3G
#p TD=(singlets,nstates=20) IOp(6/8=3) IOp(9/40=5)

TitleMe

0 1
C 21.75841 0.74511 -3.73542
C 21.83169 -0.68919 -3.75084
C 20.62790 -1.44816 -3.53035
C 20.70129 -2.65127 -2.74929
C 24.24293 0.86945 -3.70769
C 24.31621 -0.56355 -3.77155
C 23.11240 -1.32953 -3.57683
C 23.18578 -2.55830 -2.83688
C 21.98208 -3.08834 -2.25032
C 22.05584 -3.70216 -0.95395
C 20.85243 -3.81888 -0.17168
C 20.92664 -3.61264 1.24777
C 26.72742 0.99272 -3.67563
C 26.80070 -0.43724 -3.78784
C 25.59686 -1.20939 -3.61920
C 25.67023 -2.46247 -2.92119
C 24.46655 -3.01205 -2.35297
C 24.54027 -3.66935 -1.07804
C 23.33684 -3.81236 -0.30019
C 23.41102 -3.65419 1.12539
C 22.20783 -3.34268 1.85282
C 22.28246 -2.42195 2.95258
C 21.07948 -1.75985 3.38646
C 21.15434 -0.38428 3.79275
C 29.21185 1.11490 -3.63945
C 29.28513 -0.31049 -3.79988
C 28.08137 -1.08787 -3.65746
C 28.15473 -2.36388 -3.00218
C 26.95103 -2.93231 -2.45283
C 27.02471 -3.63232 -1.20091
C 25.82121 -3.80156 -0.42835
C 25.89537 -3.69163 1.00175
C 24.69220 -3.40489 1.73926
C 24.76681 -2.52176 2.86950
C 23.56385 -1.87465 3.32542
C 23.63873 -0.51360 3.77794
C 22.43578 0.27781 3.79985
C 22.51065 1.66177 3.42327
C 21.30764 2.33311 3.00383
C 21.38227 3.27729 1.92411
C 31.69639 1.23583 -3.59918
C 31.76966 -0.18339 -3.80766
C 30.56583 -0.96516 -3.69143
C 30.63921 -2.26247 -3.07970
C 29.43545 -2.84925 -2.54995
C 29.50911 -3.59118 -1.32238
C 28.30566 -3.78649 -0.55606
C 28.37979 -3.72495 0.87702
C 27.17659 -3.46319 1.62372
C 27.25118 -2.61875 2.78309
C 26.04816 -1.98734 3.26057
C 26.12305 -0.64237 3.75874
C 24.92013 0.14786 3.80743
C 24.99500 1.54380 3.47783
C 23.79203 2.22890 3.08132
C 23.86666 3.20904 2.03412
C 22.66347 3.56022 1.32500
C 22.73768 3.79695 -0.08964
C 21.53424 3.69715 -0.87426
C 21.60801 3.11138 -2.18356
C 34.18082 1.35517 -3.55476
C 34.25409 -0.05599 -3.81099
C 33.05023 -0.84131 -3.72142
C 33.12359 -2.15861 -3.15378
C 31.91998 -2.76293 -2.64423
C 31.99361 -3.54598 -1.44235
C 30.79012 -3.76697 -0.68305
C 30.86423 -3.75388 0.75119
C 29.66093 -3.51758 1.50634
C 29.73549 -2.71276 2.69353
C 28.53251 -2.09789 3.19207
C 28.60739 -0.77041 3.73535
C 27.40451 0.01772 3.81058
C 27.47939 1.42398 3.52835
C 26.27638 2.12213 3.15519
C 26.35102 3.13709 2.14178
C 25.14784 3.51210 1.44496
C 25.22206 3.79648 0.03908
C 24.01868 3.72320 -0.74846
C 24.09247 3.18196 -2.07681
C 22.88883 2.68514 -2.69181
C 22.96223 1.49916 -3.49855
C 36.66524 1.47322 -3.50656
C 36.73848 0.07126 -3.81032
C 35.53484 -0.71648 -3.74723
C 35.60817 -2.05230 -3.22434
C 34.40443 -2.67337 -2.73527
C 34.47806 -3.49643 -1.56070
C 33.27447 -3.74318 -0.80931
C 33.34856 -3.77853 0.62457
C 32.14538 -3.56803 1.38722
C 32.21990 -2.80370 2.60105
C 31.01690 -2.20595 3.11988
C 31.09176 -0.89763 3.70764
C 29.88879 -0.11245 3.80940
C 29.96369 1.30248 3.57482
C 28.76073 2.01289 3.22554
C 28.83540 3.06161 2.24698
C 27.63227 3.45993 1.56323
C 27.70652 3.79168 0.16777
C 26.50309 3.74498 -0.62183
C 26.57691 3.24889 -1.96762
C 25.37326 2.77314 -2.59911
C 25.44670 1.61504 -3.44543
C 39.15002 1.58939 -3.45415
C 39.22325 0.19849 -3.80520
C 38.01923 -0.59104 -3.76845
C 38.09254 -1.94335 -3.29105
C 36.88874 -2.58086 -2.82350
C 36.96235 -3.44316 -1.67723
C 35.75902 -3.71516 -0.93475
C 35.83309 -3.79897 0.49732
C 34.62982 -3.61410 1.26656
C 34.70433 -2.89135 2.50536
C 33.50116 -2.31151 3.04421
C 33.57600 -1.02382 3.67579
C 32.37314 -0.24260 3.80409
C 32.44803 1.17960 3.61739
C 31.24513 1.90131 3.29213
C 31.31983 2.98247 2.34960
C 30.11663 3.40370 1.67963
C 30.19091 3.78242 0.29628
C 28.98750 3.76257 -0.49447
C 29.06132 3.31216 -1.85631
C 27.85775 2.85798 -2.50345
C 27.93120 1.72908 -3.38839
C 41.63429 1.70320 -3.39746
C 41.70751 0.32560 -3.79511
C 40.50358 -0.46474 -3.78602
C 40.57680 -1.83287 -3.35435
C 39.37342 -2.48543 -2.90857
C 39.44701 -3.38611 -1.79191
C 38.24341 -3.68256 -1.05878
C 38.31749 -3.81468 0.36921
C 37.11405 -3.65624 1.14444
C 37.18855 -2.97572 2.40699
C 35.98563 -2.41465 2.96516
C 36.06042 -1.14881 3.64004
C 34.85754 -0.37235 3.79430
C 34.93244 1.05519 3.65575
C 33.72938 1.78757 3.35497
C 33.80411 2.89981 2.44952
C 32.60101 3.34362 1.79426
C 32.67532 3.76892 0.42435
C 31.47201 3.77574 -0.36658
C 31.54585 3.37160 -1.74287
C 30.34218 2.93945 -2.40496
C 30.41565 1.84114 -3.32742
C 44.11884 1.81615 -3.33750
C 44.19193 0.45160 -3.78186
C 42.98862 -0.33810 -3.79877
C 43.06175 -1.72015 -3.41377
C 41.85764 -2.38722 -2.98959
C 41.93123 -3.32451 -1.90459
C 40.72754 -3.64634 -1.18206
C 40.80160 -3.82653 0.24100
C 39.59869 -3.69444 1.02089
C 39.67319 -3.05685 2.30610
C 38.47009 -2.51455 2.88251
C 38.54488 -1.27261 3.59962
C 37.34171 -0.50171 3.78029
C 37.41659 0.92962 3.68999
C 36.21375 1.67174 3.41435
C 36.28848 2.81414 2.54676
C 35.08549 3.27954 1.90671
C 35.15986 3.75086 0.55202
C 33.95638 3.78438 -0.23835
C 34.03025 3.42704 -1.62734
C 32.82661 3.01772 -2.30380
C 32.90008 1.95107 -3.26289
C 46.60441 1.92549 -3.27249
C 46.67748 0.57751 -3.76287
C 45.47251 -0.21184 -3.80617
C 45.54558 -1.60474 -3.46855
C 44.34171 -2.28675 -3.06876
C 44.41518 -3.26080 -2.01517
C 43.21244 -3.60606 -1.30418
C 43.28653 -3.83432 0.11244
C 42.08305 -3.72754 0.89638
C 42.15763 -3.13408 2.20158
C 40.95418 -2.61197 2.79671
C 41.02894 -1.39482 3.55536
C 39.82626 -0.63081 3.76225
C 39.90109 0.80329 3.72037
C 38.69823 1.55401 3.46939
C 38.77297 2.72482 2.64106
C 37.56967 3.21170 2.01692
C 37.64409 3.72834 0.67909
C 36.44080 3.78893 -0.10967
C 36.51469 3.47867 -1.51022
C 35.31121 3.09238 -2.19998
C 35.38469 2.05878 -3.19462
C 49.08756 2.03129 -3.20325
C 49.16052 0.70244 -3.73806
C 47.95693 -0.08414 -3.81188
C 48.02967 -1.49033 -3.52128
C 46.82718 -2.18362 -3.14372
C 46.90063 -3.19310 -2.12383
C 45.69636 -3.56098 -1.42359
C 45.77057 -3.83635 -0.01719
C 44.56692 -3.75777 0.77048
C 44.64151 -3.20811 2.09551
C 43.43915 -2.70687 2.70760
C 43.51386 -1.51541 3.50750
C 42.31079 -0.75851 3.73901
C 42.38561 0.67536 3.74571
C 41.18219 1.43459 3.52063
C 41.25691 2.63252 2.73233
C 40.05408 3.14048 2.12542
C 40.12852 3.70219 0.80524
C 38.92541 3.78878 0.01902
C 38.99938 3.52611 -1.39107
C 37.79555 3.16319 -2.09364
C 37.86907 2.16404 -3.12241
C 51.57331 2.13928 -3.13219
C 51.64561 0.82428 -3.71440
C 50.44342 0.04178 -3.80995
C 50.51619 -1.37230 -3.56880
C 49.31015 -2.07865 -3.21303
C 49.38360 -3.11967 -2.22989
C 48.18000 -3.51429 -1.54413
C 48.25412 -3.83684 -0.14538
C 47.05256 -3.78374 0.64326
C 47.12718 -3.27873 1.98704
C 45.92355 -2.79652 2.61470
C 45.99833 -1.63435 3.45331
C 44.79451 -0.88577 3.71212
C 44.86923 0.54730 3.76723
C 43.66689 1.31336 3.56874
C 43.74152 2.53825 2.82090
C 42.53866 3.06530 2.23069
C 42.61319 3.67105 0.93083
C 41.40944 3.78425 0.14756
C 41.48351 3.56929 -1.27014
C 40.28003 3.23103 -1.98489
C 40.35355 2.26681 -3.04726
C 54.06087 2.23485 -3.05195
C 54.13322 0.94679 -3.67733
C 52.92444 0.16515 -3.80272
C 52.99713 -1.25215 -3.61068
C 51.79428 -1.97243 -3.28643
C 51.86715 -3.05061 -2.33494
C 50.66679 -3.46273 -1.66212
C 50.74105 -3.83245 -0.27464
C 49.53610 -3.80215 0.51666
C 49.61095 -3.34340 1.87279
C 48.40691 -2.88553 2.51939
C 48.48157 -1.75082 3.39748
C 47.28006 -1.01278 3.68133
C 47.35460 0.41936 3.78553
C 46.15142 1.19109 3.61062
C 46.22611 2.43918 2.90574
C 45.02213 2.98705 2.33375
C 45.09673 3.63597 1.05529
C 43.89400 3.77652 0.27674
C 43.96811 3.60926 -1.14862
C 42.76497 3.29437 -1.87369
C 42.83858 2.36685 -2.96782
C 56.53895 2.32484 -2.96437
C 56.60959 1.06000 -3.62733
C 55.41058 0.29376 -3.79801
C 55.48301 -1.14156 -3.65564
C 54.28322 -1.86430 -3.34882
C 54.35620 -2.97259 -2.43770
C 53.14800 -3.40625 -1.77412
C 53.22231 -3.81888 -0.40609
C 52.01907 -3.82357 0.38663
C 52.09361 -3.40785 1.76234
C 50.89415 -2.97133 2.42043
C 50.96871 -1.86554 3.33838
C 49.76427 -1.13512 3.64308
C 49.83891 0.28848 3.79579
C 48.63417 1.06752 3.65042
C 48.70880 2.33914 2.98784
C 47.50717 2.90614 2.43627
C 47.58171 3.59896 1.17844
C 46.37896 3.76281 0.40466
C 46.45332 3.64379 -1.02418
C 45.24878 3.35347 -1.76039
C 45.32248 2.46378 -2.88430
C 59.03569 2.42857 -2.87395
C 59.09754 1.17234 -3.59118
C 57.90115 0.40429 -3.75859
C 57.97965 -1.02055 -3.67874
C 56.76055 -1.75670 -3.39939
C 56.83234 -2.88172 -2.52989
C 55.63174 -3.35245 -1.89724
C 55.70438 -3.81216 -0.53016
C 54.50913 -3.83570 0.25619
C 54.58372 -3.46656 1.64641
C 53.37650 -3.04562 2.31811
C 53.45147 -1.97780 3.26691
C 52.24610 -1.26027 3.60545
C 52.32062 0.16095 3.80675
C 51.12081 0.94192 3.68830
C 51.19526 2.23904 3.06845
C 49.99188 2.82056 2.53198
C 50.06670 3.55361 1.30157
C 48.86169 3.74563 0.53250
C 48.93624 3.67397 -0.89875
C 47.73379 3.41119 -1.64459
C 47.80741 2.55817 -2.79982
C 61.49924 2.50235 -2.87778
C 61.56454 1.33452 -3.57737
C 60.36497 0.52167 -3.76456
C 60.42132 -0.88880 -3.77323
C 59.26214 -1.66049 -3.51489
C 59.32307 -2.87085 -2.66560
C 58.13174 -3.28594 -2.00777
C 58.20430 -3.79230 -0.65738
C 56.98593 -3.82455 0.13184
C 57.06149 -3.50255 1.51302
C 55.85668 -3.12798 2.21197
C 55.93181 -2.08514 3.20286
C 54.73619 -1.38436 3.56154
C 54.81065 0.03304 3.81372
C 53.60446 0.81840 3.71343
C 53.67921 2.12782 3.14203
C 52.47300 2.73421 2.62935
C 52.54791 3.50847 1.42275
C 51.34783 3.72748 0.66298
C 51.42232 3.70333 -0.77460
C 50.21976 3.46027 -1.52668
C 50.29366 2.64835 -2.70770
C 60.56467 -3.36312 -2.13120
C 60.63556 -3.86744 -0.85039
C 59.46933 -3.89859 -0.00743
C 59.54530 -3.61180 1.42888
C 58.35707 -3.19912 2.09600
C 58.43329 -2.18927 3.12774
C 57.21622 -1.49002 3.49406
C 57.29109 -0.10340 3.78795
C 56.08350 0.68904 3.74218
C 56.15838 2.02377 3.21324
C 54.96239 2.64417 2.72740
C 55.03718 3.46348 1.54284
C 53.83314 3.69826 0.78681
C 53.90824 3.72164 -0.64258
C 52.70118 3.50683 -1.40717
C 52.77504 2.73425 -2.61274
C 60.79730 -3.32661 2.08832
C 60.87054 -2.38469 3.08662
C 59.69913 -1.64116 3.48791
C 59.77373 -0.22545 3.84392
C 58.58424 0.55376 3.76126
C 58.65974 1.91671 3.28094
C 57.44489 2.54000 2.79698
C 57.52053 3.38387 1.65805
C 56.31154 3.66764 0.91530
C 56.38689 3.73723 -0.51526
C 55.19003 3.55618 -1.28323
C 55.26301 2.81771 -2.52063
C 61.02797 0.49567 3.87066
C 61.10031 1.79664 3.44200
C 59.92597 2.47191 2.93088
C 60.00125 3.37893 1.79385
C 58.81248 3.63043 1.04960
C 58.88894 3.74920 -0.39215
C 57.67622 3.57149 -1.15747
C 57.74952 2.88454 -2.39862
C 61.26047 3.69951 1.14794
C 61.33520 3.83459 -0.21171
C 60.15857 3.63998 -1.04026
C 60.23263 2.97689 -2.32577
C -19.34721 0.81391 -3.72586
C -19.27393 -0.62009 -3.75881
C -20.47774 -1.38169 -3.54761
C -20.40436 -2.59425 -2.78132
C -16.86271 0.93789 -3.69653
C -16.78943 -0.49420 -3.77790
C -17.99323 -1.26250 -3.59257
C -17.91987 -2.50024 -2.86770
C -19.12357 -3.03738 -2.28767
C -19.04985 -3.66699 -0.99890
C -20.25329 -3.79321 -0.21813
C -20.17911 -3.60432 1.20373
C -14.37823 1.06079 -3.66293
C -14.30495 -0.36772 -3.79263
C -15.50876 -1.14186 -3.63341
C -15.43541 -2.40339 -2.95079
C -16.63911 -2.95984 -2.38931
C -16.56542 -3.63268 -1.12253
C -17.76887 -3.78516 -0.34651
C -17.69471 -3.64440 1.08091
C -18.89791 -3.34176 1.81205
C -18.82330 -2.43452 2.92297
C -20.02630 -1.77774 3.36485
C -19.95143 -0.40724 3.78793
C -11.89377 1.18250 -3.62519
C -11.82049 -0.24082 -3.80306
C -13.02429 -1.01990 -3.67011
C -12.95093 -2.30379 -3.03052
C -14.15464 -2.87891 -2.48819
C -14.08098 -3.59418 -1.24489
C -15.28447 -3.77280 -0.47448
C -15.21033 -3.68035 0.95687
C -16.41354 -3.40257 1.69779
C -16.33895 -2.53332 2.83870
C -17.54193 -1.89180 3.30246
C -17.46706 -0.53637 3.77157
C -18.66999 0.25471 3.80311
C -18.59512 1.64318 3.44349
C -19.79812 2.31957 3.03224
C -19.72349 3.27688 1.96414
C -9.40930 1.30288 -3.58339
C -9.33603 -0.11361 -3.80923
C -10.53982 -0.89675 -3.70264
C -10.46646 -2.20152 -3.10681
C -11.67017 -2.79467 -2.58424
C -11.59654 -3.55154 -1.36583
C -12.80003 -3.75613 -0.60193
C -12.72592 -3.71208 0.83175
C -13.92915 -3.45948 1.58159
C -13.85459 -2.62923 2.75119
C -15.05759 -2.00370 3.23629
C -14.98272 -0.66489 3.75086
C -16.18564 0.12468 3.80911
C -16.11077 1.52454 3.49663
C -17.31375 2.21444 3.10848
C -17.23910 3.20731 2.07336
C -18.44226 3.56710 1.36855
C -18.36804 3.82109 -0.04310
C -19.57145 3.73082 -0.82891
C -19.49766 3.16109 -2.14525
C -6.92484 1.42179 -3.53757
C -6.85156 0.01374 -3.81112
C -8.05537 -0.77256 -3.73104
C -7.98200 -2.09670 -3.17960
C -9.18570 -2.70718 -2.67738
C -9.11208 -3.50479 -1.48521
C -10.31558 -3.73509 -0.72868
C -10.24150 -3.73949 0.70566
C -11.44476 -3.51240 1.46358
C -11.37023 -2.72212 2.66055
C -12.57325 -2.11334 3.16646
C -12.49839 -0.79264 3.72592
C -13.70130 -0.00548 3.81074
C -13.62642 1.40413 3.54574
C -14.82939 2.10677 3.18112
C -14.75473 3.13408 2.18019
C -15.95790 3.51752 1.48795
C -15.88364 3.81907 0.08567
C -17.08703 3.75536 -0.70274
C -17.01321 3.23037 -2.03758
C -18.21683 2.74107 -2.65862
C -18.14340 1.56502 -3.47980
C -4.44036 1.53908 -3.48775
C -4.36709 0.14107 -3.80872
C -5.57089 -0.64747 -3.75524
C -5.49754 -1.98948 -3.24879
C -6.70124 -2.61655 -2.76746
C -6.62762 -3.45395 -1.60292
C -7.83114 -3.70972 -0.85461
C -7.75708 -3.76255 0.57876
C -8.96035 -3.56125 1.34390
C -8.88586 -2.81185 2.56690
C -10.08890 -2.22052 3.09304
C -10.01406 -0.91947 3.69678
C -11.21698 -0.13563 3.80808
C -11.14209 1.28212 3.59084
C -12.34505 1.99670 3.25014
C -12.27036 3.05728 2.28452
C -13.47350 3.46392 1.60563
C -13.39922 3.81270 0.21434
C -14.60261 3.77563 -0.57579
C -14.52877 3.29598 -1.92756
C -15.73239 2.82792 -2.56479
C -15.65893 1.68025 -3.42519
C -1.95588 1.65460 -3.43391
C -1.88259 0.26824 -3.80196
C -3.08641 -0.52165 -3.77518
C -3.01308 -1.87997 -3.31430
C -4.21679 -2.52292 -2.85440
C -4.14319 -3.39915 -1.71879
C -5.34671 -3.68005 -0.97956
C -5.27267 -3.78127 0.45122
C -6.47595 -3.60595 1.22270
C -6.40148 -2.89832 2.47031
C -7.60455 -2.32513 3.01612
C -7.52974 -1.04523 3.66348
C -8.73266 -0.26561 3.80116
C -8.65777 1.15868 3.63192
C -9.86070 1.88435 3.31548
C -9.78598 2.97694 2.38624
C -10.98911 3.40631 1.72145
C -10.91480 3.80192 0.34276
C -12.11818 3.79161 -0.44819
C -12.04433 3.35786 -1.81539
C -13.24793 2.91157 -2.46805
C -13.17446 1.79358 -3.36669
C 0.52861 1.76822 -3.37609
C 0.60191 0.39509 -3.79078
C -0.60191 -0.39525 -3.79076
C -0.52861 -1.76836 -3.37601
C -1.73234 -2.42645 -2.93812
C -1.65875 -3.34050 -1.83270
C -2.86228 -3.64617 -1.10339
C -2.78828 -3.79566 0.32314
C -3.99156 -3.64650 1.10009
C -3.91711 -2.98146 2.37092
C -5.12018 -2.42706 2.93578
C -5.04540 -1.16978 3.62605
C -6.24833 -0.39526 3.78995
C -6.17343 1.03393 3.66892
C -7.37637 1.76986 3.37710
C -7.30163 2.89318 2.48526
C -8.50473 3.34478 1.83532
C -8.43038 3.78674 0.47077
C -9.63374 3.80320 -0.32009
C -9.55988 3.41589 -1.70117
C -10.76348 2.99189 -2.36853
C -10.69000 1.90488 -3.30438
C 3.01308 1.87983 -3.31438
C 3.08641 0.52149 -3.77520
C 1.88259 -0.26840 -3.80195
C 1.95588 -1.65475 -3.43384
C 0.75213 -2.32724 -3.01846
C 0.82568 -3.27808 -1.94454
C -0.37787 -3.60817 -1.22598
C -1.50718 -3.68291 0.97622
C -1.43274 -3.06121 2.26881
C -2.63581 -2.52622 2.85208
C -2.56105 -1.29299 3.58446
C -3.76399 -0.52445 3.77442
C -3.68909 0.90801 3.70174
C -4.89203 1.65337 3.43492
C -4.81728 2.80614 2.58148
C -6.02035 3.27941 1.94711
C -5.94597 3.76717 0.59826
C -7.14931 3.81036 -0.19163
C -7.07543 3.46995 -1.58500
C -8.27904 3.06880 -2.26634
C -8.20555 2.01402 -3.23838
C 5.49754 1.98934 -3.24888
C 5.57089 0.64731 -3.75527
C 4.36709 -0.14123 -3.80871
C 4.44036 -1.53923 -3.48768
C 3.23660 -2.22539 -3.09533
C 3.31012 -3.21199 -2.05416
C 2.10655 -3.56614 -1.34719
C 2.18049 -3.81159 0.06600
C 1.05163 -3.13749 2.16407
C -0.15144 -2.62250 2.76509
C -0.07669 -1.41472 3.53872
C -1.27964 -0.65305 3.75456
C -1.20473 0.78105 3.73030
C -2.40767 1.53499 3.48881
C -2.33292 2.71593 2.67477
C -3.53599 3.21031 2.05670
C -3.46157 3.74329 0.72508
C -4.66489 3.81314 -0.06294
C -4.59099 3.52002 -1.46702
C -5.79457 3.14216 -2.16156
C -5.72107 2.12086 -3.16872
C 7.98200 2.09657 -3.17969
C 8.05537 0.77240 -3.73107
C 6.85156 -0.01390 -3.81112
C 6.92484 -1.42194 -3.53751
C 5.72107 -2.12099 -3.16864
C 5.79457 -3.14226 -2.16143
C 4.59099 -3.52009 -1.46687
C 4.66489 -3.81314 -0.06277
C 3.46157 -3.74326 0.72524
C 3.53599 -3.21022 2.05683
C 2.33292 -2.71581 2.67489
C 2.40767 -1.53485 3.48887
C 1.20473 -0.78090 3.73034
C 1.27964 0.65320 3.75453
C 0.07669 1.41487 3.53866
C 0.15144 2.62262 2.76498
C -1.05163 3.13758 2.16394
C -2.18049 3.81159 0.06584
C -2.10655 3.56608 -1.34734
C -3.31012 3.21190 -2.05430
C -3.23660 2.22526 -3.09543
C 10.46646 2.20139 -3.10691
C 10.53982 0.89659 -3.70268
C 9.33603 0.11345 -3.80924
C 9.40930 -1.30304 -3.58334
C 8.20555 -2.01416 -3.23830
C 8.27904 -3.06890 -2.26621
C 7.07543 -3.47002 -1.58485
C 7.14931 -3.81037 -0.19147
C 5.94597 -3.76714 0.59842
C 6.02035 -3.27933 1.94725
C 4.81728 -2.80604 2.58160
C 4.89203 -1.65322 3.43499
C 3.68909 -0.90785 3.70178
C 3.76399 0.52461 3.77440
C 2.56105 1.29314 3.58440
C 2.63581 2.52634 2.85197
C 1.43274 3.06130 2.26868
C 1.50718 3.68295 0.97607
C 0.37787 3.60812 -1.22613
C -0.82568 3.27800 -1.94468
C -0.75213 2.32711 -3.01856
C 12.95093 2.30367 -3.03062
C 13.02429 1.01974 -3.67015
C 11.82049 0.24065 -3.80307
C 11.89377 -1.18265 -3.62514
C 10.69000 -1.90502 -3.30430
C 10.76348 -2.99199 -2.36840
C 9.55988 -3.41596 -1.70103
C 9.63374 -3.80321 -0.31993
C 8.43038 -3.78672 0.47093
C 8.50473 -3.34470 1.83546
C 7.30163 -2.89307 2.48538
C 7.37637 -1.76972 3.37717
C 6.17343 -1.03378 3.66896
C 6.24833 0.39542 3.78993
C 5.04540 1.16993 3.62600
C 5.12018 2.42719 2.93568
C 3.91711 2.98156 2.37079
C 3.99156 3.64655 1.09994
C 2.78828 3.79567 0.32298
C 2.86228 3.64612 -1.10355
C 1.65875 3.34042 -1.83285
C 1.73234 2.42632 -2.93822
C 15.43541 2.40326 -2.95089
C 15.50876 1.14170 -3.63346
C 14.30495 0.36756 -3.79264
C 14.37823 -1.06094 -3.66288
C 13.17446 -1.79373 -3.36661
C 13.24793 -2.91167 -2.46792
C 12.04434 -3.35794 -1.81525
C 12.11818 -3.79163 -0.44803
C 10.91480 -3.80190 0.34292
C 10.98911 -3.40624 1.72159
C 9.78598 -2.97683 2.38636
C 9.86070 -1.88421 3.31556
C 8.65777 -1.15853 3.63197
C 8.73266 0.26577 3.80115
C 7.52974 1.04539 3.66344
C 7.60455 2.32525 3.01602
C 6.40148 2.89843 2.47019
C 6.47595 3.60600 1.22254
C 5.27267 3.78129 0.45106
C 5.34670 3.68001 -0.97972
C 4.14319 3.39907 -1.71893
C 4.21679 2.52280 -2.85451
C 17.91987 2.50012 -2.86781
C 17.99323 1.26235 -3.59263
C 16.78943 0.49404 -3.77792
C 16.86271 -0.93805 -3.69649
C 15.65893 -1.68040 -3.42512
C 15.73239 -2.82803 -2.56467
C 14.52877 -3.29606 -1.92742
C 14.60261 -3.77566 -0.57563
C 13.39922 -3.81269 0.21450
C 13.47350 -3.46385 1.60578
C 12.27036 -3.05718 2.28465
C 12.34505 -1.99656 3.25023
C 11.14209 -1.28197 3.59089
C 11.21698 0.13579 3.80807
C 10.01406 0.91963 3.69674
C 10.08890 2.22065 3.09294
C 8.88586 2.81196 2.56678
C 8.96035 3.56130 1.34375
C 7.75708 3.76258 0.57861
C 7.83114 3.70968 -0.85476
C 6.62762 3.45388 -1.60306
C 6.70124 2.61643 -2.76757
C 20.40436 2.59413 -2.78143
C 20.47774 1.38154 -3.54767
C 19.27393 0.61993 -3.75883
C 19.34721 -0.81407 -3.72582
C 18.14340 -1.56517 -3.47973
C 18.21683 -2.74118 -2.65850
C 17.01321 -3.23045 -2.03745
C 17.08703 -3.75539 -0.70258
C 15.88364 -3.81906 0.08583
C 15.95790 -3.51746 1.48810
C 14.75473 -3.13399 2.18032
C 14.82939 -2.10664 3.18121
C 13.62642 -1.40398 3.54580
C 13.70130 0.00564 3.81074
C 12.49839 0.79279 3.72588
C 12.57325 2.11347 3.16637
C 11.37023 2.72223 2.66043
C 11.44476 3.51246 1.46343
C 10.24150 3.73952 0.70550
C 10.31558 3.73506 -0.72884
C 9.11208 3.50473 -1.48536
C 9.18570 2.70706 -2.67749
C 19.49766 -3.16118 -2.14512
C 19.57145 -3.73086 -0.82875
C 18.36804 -3.82110 -0.04294
C 18.44226 -3.56704 1.36870
C 17.23910 -3.20723 2.07349
C 17.31375 -2.21431 3.10858
C 16.11077 -1.52439 3.49669
C 16.18564 -0.12452 3.80912
C 14.98272 0.66505 3.75083
C 15.05759 2.00384 3.23620
C 13.85459 2.62935 2.75108
C 13.92915 3.45954 1.58144
C 12.72592 3.71212 0.83159
C 12.80003 3.75611 -0.60208
C 11.59654 3.55149 -1.36598
C 11.67017 2.79455 -2.58436
C 19.72349 -3.27680 1.96428
C 19.79812 -2.31944 3.03233
C 18.59512 -1.64304 3.44356
C 18.66999 -0.25455 3.80312
C 17.46706 0.53653 3.77155
C 17.54193 1.89193 3.30238
C 16.33895 2.53343 2.83860
C 16.41354 3.40264 1.69764
C 15.21033 3.68039 0.95672
C 15.28447 3.77278 -0.47464
C 14.08098 3.59413 -1.24504
C 14.15464 2.87880 -2.48831
C 19.95143 0.40740 3.78791
C 20.02630 1.77788 3.36477
C 18.82330 2.43464 2.92286
C 18.89791 3.34183 1.81191
C 17.69471 3.64445 1.08076
C 17.76887 3.78514 -0.34667
C 16.56542 3.63263 -1.12269
C 16.63911 2.95974 -2.38943
C 20.17910 3.60438 1.20358
C 20.25329 3.79320 -0.21829
C 19.04985 3.66695 -0.99906
C 19.12357 3.03728 -2.28780
C -60.42132 0.88864 -3.77327
C -60.36497 -0.52182 -3.76454
C -61.56454 -1.33467 -3.57731
C -61.49924 -2.50247 -2.87767
C -57.97965 1.02040 -3.67878
C -57.90115 -0.40445 -3.75857
C -59.09754 -1.17250 -3.59113
C -59.03569 -2.42869 -2.87385
C -60.23263 -2.97699 -2.32564
C -60.15857 -3.64003 -1.04011
C -61.33520 -3.83460 -0.21155
C -61.26047 -3.69946 1.14809
C -55.48301 1.14140 -3.65569
C -55.41058 -0.29392 -3.79799
C -56.60959 -1.06015 -3.62729
C -56.53895 -2.32496 -2.96427
C -57.74952 -2.88464 -2.39850
C -57.67622 -3.57154 -1.15732
C -58.88894 -3.74921 -0.39200
C -58.81248 -3.63038 1.04976
C -60.00125 -3.37885 1.79399
C -59.92597 -2.47179 2.93098
C -61.10031 -1.79649 3.44207
C -61.02797 -0.49550 3.87068
C -52.99713 1.25200 -3.61074
C -52.92444 -0.16531 -3.80271
C -54.13322 -0.94694 -3.67729
C -54.06087 -2.23497 -3.05186
C -55.26301 -2.81782 -2.52051
C -55.19003 -3.55624 -1.28308
C -56.38689 -3.73725 -0.51510
C -56.31154 -3.66760 0.91546
C -57.52053 -3.38380 1.65819
C -57.44489 -2.53988 2.79709
C -58.65974 -1.91657 3.28102
C -58.58424 -0.55360 3.76128
C -59.77373 0.22562 3.84391
C -59.69913 1.64131 3.48784
C -60.87054 2.38482 3.08652
C -60.79730 3.32670 2.08817
C -50.51619 1.37215 -3.56886
C -50.44342 -0.04194 -3.80994
C -51.64561 -0.82444 -3.71436
C -51.57331 -2.13941 -3.13211
C -52.77504 -2.73436 -2.61262
C -52.70118 -3.50689 -1.40702
C -53.90824 -3.72167 -0.64242
C -53.83314 -3.69823 0.78696
C -55.03718 -3.46342 1.54299
C -54.96239 -2.64405 2.72752
C -56.15838 -2.02363 3.21333
C -56.08350 -0.68888 3.74221
C -57.29109 0.10356 3.78795
C -57.21622 1.49017 3.49400
C -58.43329 2.18941 3.12765
C -58.35707 3.19922 2.09586
C -59.54530 3.61186 1.42873
C -59.46933 3.89859 -0.00760
C -60.63556 3.86741 -0.85056
C -60.56467 3.36303 -2.13134
C -48.02967 1.49018 -3.52135
C -47.95693 0.08398 -3.81188
C -49.16052 -0.70260 -3.73803
C -49.08756 -2.03142 -3.20317
C -50.29366 -2.64846 -2.70758
C -50.21976 -3.46033 -1.52654
C -51.42232 -3.70336 -0.77445
C -51.34783 -3.72745 0.66314
C -52.54791 -3.50841 1.42290
C -52.47300 -2.73409 2.62946
C -53.67922 -2.12768 3.14212
C -53.60446 -0.81825 3.71346
C -54.81065 -0.03288 3.81372
C -54.73619 1.38451 3.56148
C -55.93181 2.08528 3.20277
C -55.85668 3.12808 2.21184
C -57.06149 3.50262 1.51287
C -56.98593 3.82455 0.13168
C -58.20430 3.79228 -0.65755
C -58.13174 3.28586 -2.00791
C -59.32307 2.87074 -2.66572
C -59.26214 1.66034 -3.51496
C -45.54558 1.60459 -3.46862
C -45.47251 0.21168 -3.80618
C -46.67748 -0.57767 -3.76284
C -46.60441 -1.92563 -3.27241
C -47.80741 -2.55829 -2.79972
C -47.73379 -3.41126 -1.64444
C -48.93624 -3.67401 -0.89860
C -48.86169 -3.74561 0.53266
C -50.06670 -3.55355 1.30173
C -49.99189 -2.82045 2.53210
C -51.19526 -2.23891 3.06854
C -51.12081 -0.94176 3.68834
C -52.32062 -0.16079 3.80675
C -52.24610 1.26042 3.60540
C -53.45147 1.97794 3.26683
C -53.37650 3.04571 2.31798
C -54.58372 3.46663 1.64626
C -54.50913 3.83572 0.25603
C -55.70438 3.81214 -0.53032
C -55.63174 3.35237 -1.89738
C -56.83234 2.88161 -2.53002
C -56.76055 1.75656 -3.39947
C -43.06175 1.72000 -3.41384
C -42.98862 0.33794 -3.79878
C -44.19193 -0.45175 -3.78184
C -44.11884 -1.81629 -3.33742
C -45.32248 -2.46390 -2.88420
C -45.24878 -3.35355 -1.76025
C -46.45332 -3.64384 -1.02403
C -46.37896 -3.76280 0.40482
C -47.58171 -3.59891 1.17859
C -47.50717 -2.90604 2.43639
C -48.70880 -2.33902 2.98794
C -48.63417 -1.06737 3.65046
C -49.83891 -0.28832 3.79580
C -49.76427 1.13527 3.64303
C -50.96871 1.86568 3.33830
C -50.89415 2.97144 2.42031
C -52.09361 3.40792 1.76220
C -52.01907 3.82359 0.38647
C -53.22231 3.81887 -0.40626
C -53.14800 3.40618 -1.77427
C -54.35620 2.97249 -2.43783
C -54.28322 1.86416 -3.34890
C -40.57680 1.83272 -3.35442
C -40.50358 0.46458 -3.78604
C -41.70751 -0.32576 -3.79510
C -41.63429 -1.70334 -3.39739
C -42.83858 -2.36698 -2.96772
C -42.76497 -3.29445 -1.87355
C -43.96811 -3.60930 -1.14847
C -43.89400 -3.77651 0.27690
C -45.09673 -3.63592 1.05544
C -45.02213 -2.98695 2.33388
C -46.22611 -2.43905 2.90584
C -46.15142 -1.19094 3.61067
C -47.35460 -0.41920 3.78555
C -47.28006 1.01294 3.68129
C -48.48157 1.75097 3.39740
C -48.40691 2.88564 2.51927
C -49.61095 3.34348 1.87265
C -49.53610 3.80217 0.51650
C -50.74105 3.83244 -0.27480
C -50.66679 3.46266 -1.66226
C -51.86714 3.05051 -2.33507
C -51.79428 1.97230 -3.28651
C -38.09254 1.94321 -3.29113
C -38.01923 0.59088 -3.76847
C -39.22325 -0.19865 -3.80519
C -39.15002 -1.58954 -3.45408
C -40.35355 -2.26693 -3.04716
C -40.28003 -3.23111 -1.98475
C -41.48351 -3.56934 -1.26998
C -41.40944 -3.78424 0.14772
C -42.61319 -3.67101 0.93098
C -42.53866 -3.06520 2.23082
C -43.74152 -2.53814 2.82100
C -43.66689 -1.31320 3.56880
C -44.86923 -0.54714 3.76725
C -44.79451 0.88593 3.71208
C -45.99833 1.63450 3.45324
C -45.92355 2.79663 2.61458
C -47.12718 3.27881 1.98690
C -47.05256 3.78377 0.64311
C -48.25412 3.83683 -0.14555
C -48.18000 3.51423 -1.54428
C -49.38360 3.11958 -2.23002
C -49.31015 2.07851 -3.21311
C -35.60817 2.05216 -3.22443
C -35.53484 0.71632 -3.74726
C -36.73848 -0.07143 -3.81032
C -36.66524 -1.47337 -3.50649
C -37.86908 -2.16417 -3.12232
C -37.79555 -3.16328 -2.09351
C -38.99938 -3.52617 -1.39092
C -38.92541 -3.78878 0.01918
C -40.12852 -3.70216 0.80539
C -40.05408 -3.14039 2.12555
C -41.25691 -2.63241 2.73244
C -41.18219 -1.43444 3.52069
C -42.38561 -0.67520 3.74574
C -42.31079 0.75867 3.73897
C -43.51386 1.51556 3.50744
C -43.43915 2.70698 2.70748
C -44.64150 3.20820 2.09537
C -44.56692 3.75780 0.77032
C -45.77057 3.83635 -0.01736
C -45.69636 3.56092 -1.42374
C -46.90063 3.19301 -2.12397
C -46.82718 2.18349 -3.14382
C -33.12359 2.15848 -3.15388
C -33.05023 0.84115 -3.72145
C -34.25409 0.05583 -3.81099
C -34.18082 -1.35532 -3.55470
C -35.38469 -2.05892 -3.19453
C -35.31121 -3.09247 -2.19985
C -36.51469 -3.47874 -1.51008
C -36.44080 -3.78893 -0.10951
C -37.64409 -3.72831 0.67925
C -37.56967 -3.21161 2.01705
C -38.77297 -2.72471 2.64117
C -38.69823 -1.55386 3.46945
C -39.90109 -0.80313 3.72041
C -39.82626 0.63097 3.76222
C -41.02894 1.39498 3.55530
C -40.95418 2.61209 2.79660
C -42.15763 3.13417 2.20144
C -42.08305 3.72758 0.89623
C -43.28653 3.83432 0.11228
C -43.21244 3.60601 -1.30433
C -44.41518 3.26071 -2.01531
C -44.34171 2.28662 -3.06886
C -30.63921 2.26234 -3.07979
C -30.56583 0.96500 -3.69147
C -31.76966 0.18323 -3.80766
C -31.69639 -1.23598 -3.59912
C -32.90008 -1.95121 -3.26281
C -32.82661 -3.01782 -2.30367
C -34.03025 -3.42710 -1.62719
C -33.95638 -3.78439 -0.23819
C -35.15986 -3.75083 0.55218
C -35.08549 -3.27946 1.90685
C -36.28848 -2.81403 2.54688
C -36.21375 -1.67159 3.41443
C -37.41659 -0.92946 3.69002
C -37.34171 0.50187 3.78026
C -38.54488 1.27276 3.59957
C -38.47009 2.51467 2.88241
C -39.67319 3.05694 2.30597
C -39.59869 3.69449 1.02073
C -40.80160 3.82654 0.24084
C -40.72754 3.64629 -1.18222
C -41.93123 3.32443 -1.90473
C -41.85764 2.38710 -2.98969
C -28.15473 2.36376 -3.00228
C -28.08137 1.08772 -3.65750
C -29.28513 0.31033 -3.79989
C -29.21185 -1.11506 -3.63940
C -30.41565 -1.84128 -3.32734
C -30.34218 -2.93955 -2.40483
C -31.54585 -3.37168 -1.74273
C -31.47201 -3.77576 -0.36642
C -32.67532 -3.76890 0.42451
C -32.60101 -3.34354 1.79440
C -33.80411 -2.89971 2.44964
C -33.72938 -1.78742 3.35505
C -34.93244 -1.05504 3.65580
C -34.85754 0.37251 3.79428
C -36.06042 1.14897 3.63999
C -35.98563 2.41477 2.96505
C -37.18855 2.97582 2.40686
C -37.11405 3.65629 1.14429
C -38.31749 3.81469 0.36905
C -38.24341 3.68252 -1.05894
C -39.44701 3.38603 -1.79205
C -39.37342 2.48530 -2.90867
C -25.67023 2.46234 -2.92129
C -25.59686 1.20924 -3.61925
C -26.80070 0.43708 -3.78786
C -26.72742 -0.99287 -3.67559
C -27.93120 -1.72923 -3.38832
C -27.85775 -2.85808 -2.50333
C -29.06132 -3.31223 -1.85617
C -28.98750 -3.76260 -0.49432
C -30.19091 -3.78241 0.29644
C -30.11663 -3.40363 1.67978
C -31.31983 -2.98237 2.34972
C -31.24513 -1.90117 3.29221
C -32.44803 -1.17945 3.61744
C -32.37314 0.24276 3.80408
C -33.57600 1.02398 3.67575
C -33.50116 2.31164 3.04411
C -34.70433 2.89146 2.50524
C -34.62982 3.61415 1.26640
C -35.83308 3.79899 0.49716
C -35.75902 3.71512 -0.93491
C -36.96235 3.44309 -1.67737
C -36.88874 2.58074 -2.82361
C -23.18578 2.55818 -2.83698
C -23.11240 1.32937 -3.57688
C -24.31621 0.56339 -3.77157
C -24.24293 -0.86960 -3.70765
C -25.44670 -1.61519 -3.44537
C -25.37326 -2.77325 -2.59899
C -26.57691 -3.24897 -1.96749
C -26.50309 -3.74501 -0.62167
C -27.70652 -3.79168 0.16793
C -27.63227 -3.45986 1.56338
C -28.83540 -3.06151 2.24711
C -28.76073 -2.01276 3.22563
C -29.96369 -1.30233 3.57487
C -29.88879 0.11261 3.80939
C -31.09176 0.89779 3.70761
C -31.01690 2.20608 3.11979
C -32.21990 2.80381 2.60093
C -32.14538 3.56809 1.38707
C -33.34856 3.77856 0.62441
C -33.27447 3.74315 -0.80947
C -34.47806 3.49637 -1.56085
C -34.40443 2.67325 -2.73538
C -20.70129 2.65115 -2.74940
C -20.62790 1.44801 -3.53042
C -21.83169 0.68903 -3.75087
C -21.75841 -0.74527 -3.73539
C -22.96223 -1.49931 -3.49849
C -22.88883 -2.68526 -2.69170
C -24.09247 -3.18205 -2.07667
C -24.01868 -3.72323 -0.74830
C -25.22206 -3.79648 0.03925
C -25.14784 -3.51204 1.44511
C -26.35102 -3.13700 2.14191
C -26.27638 -2.12200 3.15528
C -27.47939 -1.42383 3.52841
C -27.40451 -0.01756 3.81058
C -28.60739 0.77056 3.73532
C -28.53251 2.09803 3.19198
C -29.73549 2.71287 2.69342
C -29.66093 3.51764 1.50619
C -30.86423 3.75391 0.75103
C -30.79012 3.76694 -0.68320
C -31.99361 3.54592 -1.44250
C -31.91998 2.76282 -2.64435
C -21.60801 -3.11147 -2.18343
C -21.53424 -3.69719 -0.87411
C -22.73768 -3.79696 -0.08948
C -22.66347 -3.56017 1.32515
C -23.86666 -3.20896 2.03425
C -23.79203 -2.22877 3.08141