%chk=geometry.chk
%mem=20GB
%nprocshared=12

#p wB97XD/6-311++G** nosymm
#P TD=(singlets,nstates=500) IOp(6/8=3) IOp(9/40=6)

Title Card Required

0 1
C          0.02178        0.09592        0.14981
H         -0.90778       -0.48142        0.17511
C          1.25595       -0.64475        0.09416
C          2.45062       -0.00272        0.06011
H          3.39064       -0.54551        0.01815
H          1.23497       -1.72523        0.07839
O          2.60147        1.30485        0.07383
N          0.01775        1.38397        0.16865
H         -0.91491        1.78022        0.20804
H          1.68635        1.70310        0.11338







