$molecule
0 1
 C                  0.73800500    1.28081960   -0.05304325
 C                  2.13107735    1.27623482   -0.03775458
 C                  2.78774418    0.04994967   -0.02233513
 C                  2.10787290   -1.16395883   -0.02177557
 C                  0.02715627    0.07955847   -0.05285920
 H                  0.20350732    2.22257168   -0.06513515
 H                  2.70574282    2.19227310   -0.03751535
 H                  2.65503181   -2.09648975   -0.00950659
 H                 -1.05554128    0.07960796   -0.06461677
 N                  4.25078279    0.02984995   -0.00604320
 O                  4.85312968    1.12722449   -0.00700032
 O                  4.82301363   -1.08336832    0.00783743
 C                  0.72203597   -1.12622675   -0.03726783
 Br                -0.25419454   -2.77854143   -0.03668405
$end

$rem
   !SCF_GUESS         read
   !SKIP_CIS_RPA      TRUE
   METHOD             wB97XD
   RPA                TRUE
   BASIS              6-311+G*
   CIS_N_ROOTS        100
   CIS_SINGLETS       TRUE
   CIS_TRIPLETS       FALSE
   MAKE_CUBE_FILES    TRUE
   PLOTS              TRUE
   STS_MOM            TRUE
   SYM_IGNORE         TRUE
   SYMMETRY           FALSE
   NTO_PAIRS          1
$end

$plots
   grid_points                    75 75 75
   total_density                  0-100
   transition_density             1-100
   natural_transition_orbital     1-100
$end
































