$molecule
1 1
 C                  0.02949981    1.33972592    100.06817723
 C                  1.43483278    1.28667967    100.00635313
 C                  2.11179024    0.05106117     99.99455862
 C                  1.44506636   -1.13720058    100.03116583
 C                 -0.68793171    0.16822220    100.10995314
 H                 -0.47126997    2.29839666    100.07811355
 H                  2.02732783    2.19651728     99.96779376
 H                  1.98966526   -2.07643217    100.02318494
 H                 -1.77163480    0.18040547    100.15819632
 N                  3.58635895    0.05097292     99.93254714
 O                  4.14711759   -1.05966097     99.91192151
 O                  4.14497859    1.16390951     99.90989177
 C                 -0.02361177   -1.14582791    100.08353483
 H                 -0.43674996   -1.87247364    100.78889576
 Br                -0.53591638   -1.86972195     98.25921329
$end

$rem
   METHOD             wB97XD
   RPA                TRUE
   BASIS              6-31G
   CIS_N_ROOTS        20
   CIS_SINGLETS       TRUE
   CIS_TRIPLETS       FALSE
   MAKE_CUBE_FILES    TRUE
   PLOTS              TRUE
   STS_MOM            TRUE
   SYM_IGNORE         TRUE
   SYMMETRY           FALSE
$end































